NBBFC-1_final; Created by Multiwfn
1.0
      4.47996807      0.00000000      0.00000000
     -2.23998404      3.87976616      0.00000000
      0.00000000      0.00000000     22.92158318
    H     Be    B     N     O     F     Cl
    12     6     3     3     9     3     3
Direct
      0.79457134      0.20815345      0.30069456
      0.41358070      0.20543155      0.30069630
      0.79184838      0.58642017      0.30069674
      0.00000080      0.00000467      0.02694666
      0.46122842      0.54148829      0.63403014
      0.08024071      0.53876725      0.63402984
      0.45850765      0.91975704      0.63402917
      0.66667150      0.33332792      0.36027999
      0.12790427      0.87481952      0.96736268
      0.74691457      0.87209796      0.96736236
      0.12518152      0.25308620      0.96736189
      0.33332684      0.66667396      0.69361406
      0.00000347      0.00000145      0.19955981
      0.66666842      0.33334198      0.15276760
      0.66668222      0.33334534      0.53289309
      0.33331991      0.66667263      0.48610098
      0.33332688      0.66665629      0.86622644
      0.00001168      0.00001082      0.81943427
      0.33332762      0.66666659      0.17688142
     -0.00000525     -0.00001320      0.51021479
      0.66665799      0.33333950      0.84354844
      0.66666744      0.33333300      0.31543773
      0.33332634      0.66667206      0.64877177
      0.00000030      0.00000168      0.98210436
      0.64126141      0.66455628      0.17787850
      0.33544556      0.97671481      0.17787891
      0.02328493      0.35873064      0.17787864
      0.30794144     -0.00209819      0.51121165
      1.00211100      0.31003334      0.51121241
      0.68993766      0.69206365      0.51121233
      0.97458319      0.33121236      0.84454575
      0.66878080      0.64339053      0.84454583
      0.35662560      0.02539334      0.84454531
     -0.00000848     -0.00002706      0.26946842
      0.66668987      0.33335633      0.60280181
      0.33332374      0.66665327      0.93613508
      0.66667606      0.33333111      0.06465341
      0.33332889      0.66667381      0.39798661
     -0.00000528      0.00000299      0.73132012
