&GLOBAL
   PROJECT NBBFC
   RUN_TYPE ENERGY_FORCE
   PRINT_LEVEL MEDIUM
   PREFERRED_DIAG_LIBRARY SL
&END GLOBAL

&FORCE_EVAL
   METHOD QUICKSTEP
   &PRINT
      &FORCES
         FILENAME forces
      &END FORCES
   &END PRINT
   &DFT
      BASIS_SET_FILE_NAME BASIS_MOLOPT
      POTENTIAL_FILE_NAME POTENTIAL
      CHARGE 0
      MULTIPLICITY 1
      WFN_RESTART_FILE_NAME NBBFC-RESTART.wfn 
      &SCF
         MAX_SCF 500
         EPS_SCF 1e-06
         &PRINT
            &RESTART OFF
            &END RESTART
         &END PRINT
         &MIXING
            METHOD BROYDEN_MIXING
            ALPHA 0.4
            NBUFFER 8
         &END MIXING
         &DIAGONALIZATION
            ALGORITHM STANDARD
         &END DIAGONALIZATION
      &END SCF
      &MGRID
         CUTOFF 600.0
         REL_CUTOFF 60.0
         NGRIDS 5
      &END MGRID
      &XC
         &XC_FUNCTIONAL PBE
         &END XC_FUNCTIONAL
         &VDW_POTENTIAL
            POTENTIAL_TYPE PAIR_POTENTIAL
            &PAIR_POTENTIAL
               CALCULATE_C9_TERM .TRUE.
               PARAMETER_FILE_NAME dftd3.dat
               REFERENCE_C9_TERM .TRUE.
               REFERENCE_FUNCTIONAL PBE
               R_CUTOFF 16.0
               TYPE DFTD3(BJ)
               VERBOSE_OUTPUT .TRUE.
            &END PAIR_POTENTIAL
         &END VDW_POTENTIAL
      &END XC
      &POISSON
         PERIODIC XYZ
         POISSON_SOLVER PERIODIC
      &END POISSON
      &QS
         EPS_DEFAULT 1e-12
      &END QS
   &END DFT
   &SUBSYS
      &KIND Cl
         BASIS_SET DZVP-MOLOPT-SR-GTH
         POTENTIAL GTH-PBE-q7
      &END KIND
      &KIND F
         BASIS_SET DZVP-MOLOPT-SR-GTH
         POTENTIAL GTH-PBE-q7
      &END KIND
      &KIND Be
         BASIS_SET DZVP-MOLOPT-SR-GTH
         POTENTIAL GTH-PBE-q4
      &END KIND
      &KIND O
         BASIS_SET DZVP-MOLOPT-SR-GTH
         POTENTIAL GTH-PBE-q6
      &END KIND
      &KIND B
         BASIS_SET DZVP-MOLOPT-SR-GTH
         POTENTIAL GTH-PBE-q3
      &END KIND
      &KIND H
         BASIS_SET DZVP-MOLOPT-SR-GTH
         POTENTIAL GTH-PBE-q1
      &END KIND
      &KIND N
         BASIS_SET DZVP-MOLOPT-SR-GTH
         POTENTIAL GTH-PBE-q5
      &END KIND
   @include 'coord.in'
   &END SUBSYS
&END FORCE_EVAL

