B Be2 F1 Cl1 H4 N O3
1.0
        4.4799680710         0.0000000000         0.0000000000
       -2.2399840355         3.8797661576         0.0000000000
        0.0000000000         0.0000000000        22.9215831757
   Be    B    O    F   Cl    H    N
    6    3    9    3    3   12    3
Direct
      0.000000000	0.000000000	0.199546769
      0.000000000	0.000000000	0.819423020
      0.666666687	0.333333343	0.532880127
      0.666666687	0.333333343	0.152755484
      0.333333343	0.666666687	0.866211593
      0.333333343	0.666666687	0.486088812
      0.000000000	0.000000000	0.510203779
      0.666666687	0.333333343	0.843537092
      0.333333343	0.666666687	0.176868930
      0.309500009	0.000000000	0.511206746
      0.000000000	0.309500009	0.511206985
      0.690500021	0.690500021	0.511206746
      0.976166666	0.333333343	0.844540298
      0.666666687	0.642833352	0.844540894
      0.357166648	0.023833325	0.844539344
      0.642833352	0.666666687	0.177873418
      0.333333343	0.976166666	0.177873701
      0.023833325	0.357166648	0.177873343
      0.000000000	0.000000000	0.269465446
      0.666666687	0.333333343	0.602791727
      0.333333343	0.666666687	0.936128080
      0.000000000	0.000000000	0.731295109
      0.666666687	0.333333343	0.064627811
      0.333333343	0.666666687	0.397962004
      0.426900029	0.567399979	0.633952916
      0.140499949	0.573099971	0.633956492
      0.432599932	0.859500051	0.633954704
      0.760233462	0.234066740	0.300619543
      0.473833293	0.239766613	0.300619543
      0.765933335	0.526166737	0.300619334
      0.666666687	0.333333343	0.360205919
      0.333333343	0.666666687	0.693539262
      0.000000000	0.000000000	0.026872585
      0.093566753	0.900733411	0.967285395
      0.807166636	0.906433225	0.967287540
      0.099266686	0.192833349	0.967287540
      0.666666687	0.333333343	0.315364331
      0.333333343	0.666666687	0.648698509
      0.000000000	0.000000000	0.982030988
		
