&CONTROL
  calculation = 'relax'
  prefix = 'tio2_slab'
  outdir = './outdir'
  pseudo_dir = '/home/apparelixetsy/qe/pp/'
  etot_conv_thr = 5.0D-4
  forc_conv_thr = 5.0D-3
/
&SYSTEM
  a     =  1.02393e+01
  b     =  3.78500e+00
  c     =  2.50000e+01
  ibrav = 8
  nat   = 36
  ntyp  = 2
  input_dft = 'pbe'
  ecutwfc = 50
  ecutrho = 500
  occupations='smearing',
  smearing='mv',
  degauss=0.005d0,
/
&ELECTRONS
  conv_thr = 1.0E-5
  mixing_mode = 'local-TF'
  mixing_beta = 0.7
  mixing_ndim = 8
  diagonalization = 'david'
  electron_maxstep = 100
  scf_must_converge = .false.
/
&IONS
  ion_dynamics = 'bfgs'
/

ATOMIC_SPECIES
  Ti     47.86700  Ti.pbe-spn-rrkjus_psl.1.0.0.UPF
  O      15.99940  O.pbe-n-rrkjus_psl.1.0.0.UPF

ATOMIC_POSITIONS {angstrom}
Ti    0.000000    0.000000    0.000000
Ti    7.440962    0.000000    7.033800
Ti    8.840115    0.000000    3.516900
Ti    3.720486    1.892500    3.516900
Ti    5.119629    1.892500    0.000000
Ti    2.321332    1.892500    7.033800
Ti    2.210031    1.892500    0.879240
Ti    9.650993    1.892500    7.913040
Ti    0.810878    1.892500    4.396140
Ti    5.930507    0.000000    4.396140
Ti    7.329661    0.000000    0.879240
Ti    4.531364    0.000000    7.913040
 O    1.768023    0.000000    0.703380
 O    9.208985    0.000000    7.737180
 O    0.368880    0.000000    4.220280
 O    5.488509    1.892500    4.220280
 O    6.887653    1.892500    0.703380
 O    4.089355    1.892500    7.737180
 O    3.978054    1.892500    1.582620
 O    1.179757    1.892500    8.616420
 O    2.578901    1.892500    5.099520
 O    7.698530    0.000000    5.099520
 O    9.097684    0.000000    1.582620
 O    6.299387    0.000000    8.616420
 O    4.162484    0.000000    3.692760
 O    5.561638    0.000000    0.175860
 O    2.763340    0.000000    7.209660
 O    0.442008    1.892500    0.175860
 O    7.882970    1.892500    7.209660
 O    9.282113    1.892500    3.692760
 O    1.952463    1.892500    2.813520
 O    9.393425    1.892500    9.847320
 O    0.553309    1.892500    6.330420
 O    7.072092    0.000000    2.813520
 O    4.273795    0.000000    9.847320
 O    5.672938    0.000000    6.330420

K_POINTS {gamma}
