&GLOBAL
  PROJECT NBBFC
  PRINT_LEVEL LOW
  RUN_TYPE MD
  PREFERRED_DIAG_LIBRARY SL
&END GLOBAL

&MOTION
  &MD
    ENSEMBLE                      NVT
    STEPS                         10000
    TIMESTEP                      0.5             
    TEMPERATURE                   300
    &THERMOSTAT
      TYPE  NOSE
      REGION  GLOBAL
      &NOSE
        MTS  2
        LENGTH  3
        TIMECON  100
      &END NOSE
    &END THERMOSTAT
  &END MD
  &PRINT
     &TRAJECTORY  
       FORMAT  XMOL
       &EACH
         MD  1
       &END EACH
     &END TRAJECTORY
     &CELL
       &EACH
         MD  1
       &END EACH
     &END CELL
     &FORCES
       &EACH
         MD  1
       &END EACH
     &END FORCES
     &STRESS
       &EACH
         MD  1
       &END EACH
     &END STRESS
     &VELOCITIES
       &EACH
         MD  1
       &END EACH
     &END VELOCITIES
     &RESTART_HISTORY  SILENT
       &EACH
         MD  1000
       &END EACH
     &END RESTART_HISTORY
   &END PRINT
&END MOTION


&FORCE_EVAL
  METHOD Quickstep
  STRESS_TENSOR    ANALYTICAL
  &SUBSYS
    &CELL
      ABC [angstrom]  4.479968 4.479968 22.921584
      PERIODIC XYZ #Direction(s) of applied PBC (geometry aspect)
      ALPHA_BETA_GAMMA [deg] 90 90 120
      MULTIPLE_UNIT_CELL 3 3 1
    &END CELL
    &TOPOLOGY
      MULTIPLE_UNIT_CELL 3 3 1
    &END TOPOLOGY
    &COORD
      Be          2.24175341    3.87535628    4.63415520
      Be          2.24812946    3.83848744   18.71932325
      Be          2.18574424    1.29558934   12.15277009
      Be          2.24305043    1.28729076    3.55928763
      Be          0.01180754    2.54318862   19.79326180
      Be         -0.05191282    2.58897517   11.08418281
      B           4.42672732    0.00314420   11.63473084
      B           2.24963338    1.25034258   19.27258312
      B           0.00243793    2.58180373    4.11448415
      O          -0.90901640    3.87458634   11.65471685
      O           3.74096746    1.20587317   11.65738240
      O           1.48802939    2.68845202   11.65950219
      O           3.63395409    1.24187255   19.29899085
      O           1.56547079    2.45376350   19.29251046
      O           1.38721002    2.57246165    4.13619937
      O          -0.68215810    3.78510671    4.13920669
      F           2.23912022    3.87903461    6.23654973
      Cl          2.22307927    3.85738120   16.69940885
      F           2.17998787    1.29296674   13.75419206
      Cl          2.25262537    1.27076458    1.53089432
      F           0.02893273    2.53476786   21.39699908
      Cl         -0.02957995    2.58410040    9.07339579
      H           2.22454457    1.29495430    8.27978913
      H           0.80502250    2.09652655   14.46335516
      H          -0.89628863    2.08812111   14.47069579
      H          -0.05544030    3.56459272   14.46589258
      H          -0.04464405    2.58529052   15.83252761
      H           1.41922470    3.33809535   22.14143024
      H           3.08572703    0.80753766    6.92412230
      H           1.38333220    0.79563329    6.91486450
      H           2.22625115    2.27574090    6.91788190
      N           2.22964213    1.29322389    7.25309768
      N          -0.04701050    2.58300603   14.80470132
      N           2.26441069    3.83449586   22.48586211
      O          -0.69762837    1.38773918    4.13813717
      O           1.54916695    0.05508558   19.29567020
      H          -1.36261204    3.34616212   22.15024588
      H           0.02193849    0.93458180   22.14010675
      H           2.25961314    3.83670834    0.59329449
    &END COORD
    &KIND N
      BASIS_SET DZVP-MOLOPT-SR-GTH
      POTENTIAL GTH-PBE-q5
    &END KIND
    &KIND H
      BASIS_SET DZVP-MOLOPT-SR-GTH
      POTENTIAL GTH-PBE-q1
    &END KIND
    &KIND B
      BASIS_SET DZVP-MOLOPT-SR-GTH
      POTENTIAL GTH-PBE-q3
    &END KIND
    &KIND O
      BASIS_SET DZVP-MOLOPT-SR-GTH
      POTENTIAL GTH-PBE-q6
    &END KIND
    &KIND Be
      BASIS_SET DZVP-MOLOPT-SR-GTH
      POTENTIAL GTH-PBE-q4
    &END KIND
    &KIND F
      BASIS_SET DZVP-MOLOPT-SR-GTH
      POTENTIAL GTH-PBE-q7
    &END KIND
    &KIND Cl
      BASIS_SET DZVP-MOLOPT-SR-GTH
      POTENTIAL GTH-PBE-q7
    &END KIND
  &END SUBSYS

  &DFT
    BASIS_SET_FILE_NAME  BASIS_MOLOPT
    POTENTIAL_FILE_NAME  POTENTIAL
    &POISSON
      PERIODIC XYZ #Direction(s) of PBC for calculating electrostatics
      PSOLVER PERIODIC #The way to solve Poisson equation
    &END POISSON
    &XC
      &VDW_POTENTIAL
        DISPERSION_FUNCTIONAL PAIR_POTENTIAL
        &PAIR_POTENTIAL
          CALCULATE_C9_TERM .TRUE.
          PARAMETER_FILE_NAME dftd3.dat
          REFERENCE_C9_TERM .TRUE.
          REFERENCE_FUNCTIONAL PBE
          R_CUTOFF 16
          TYPE DFTD3(BJ)
          VERBOSE_OUTPUT T
        &END PAIR_POTENTIAL
      &END VDW_POTENTIAL
      &XC_FUNCTIONAL PBE
      &END XC_FUNCTIONAL
    &END XC
    &MGRID
      CUTOFF 600
      REL_CUTOFF 60
      NGRIDS 5
    &END MGRID
    &SCF
       MAX_SCF 20
       EPS_SCF 1e-06
       SCF_GUESS RESTART
      &OT
        MINIMIZER DIIS
        PRECONDITIONER FULL_KINETIC
      &END OT
      &OUTER_SCF
       EPS_SCF  1E-06
       MAX_SCF  20
      &END OUTER_SCF
    &END SCF
  &END DFT
&END FORCE_EVAL
