&control
 calculation= 'scf'
 prefix= 'BPOSCAR_2nd'
 pseudo_dir= './'
/
&system
 ibrav= 0
 nat=    39
 ntyp=    7
 ecutwfc= 44.0
/
&electrons
/
CELL_PARAMETERS angstrom
    4.47996807    0.00000000    0.00000000
   -2.23998404    3.87976616    0.00000000
    0.00000000    0.00000000   22.92158318
ATOMIC_SPECIES
H    1.0079  Pseudopotential_file
Be   9.0122  Pseudopotential_file
B   10.8110  Pseudopotential_file
N   14.0067  Pseudopotential_file
O   15.9994  Pseudopotential_file
F   18.9984  Pseudopotential_file
Cl  35.4529  Pseudopotential_file
ATOMIC_POSITIONS angstrom
H    -1.386566    3.394108   22.173533
H     1.392683    3.383513   22.173533
H    -0.006117    0.981911   22.173533
H     0.000000    2.586511   15.898775
H     3.093402    0.807597    6.892478
H     1.392683    0.797003    6.892478
H     2.233867    2.275166    6.892478
H     0.000000    0.000000    0.617720
H     0.853418    2.100852   14.533006
H    -0.847302    2.090258   14.533006
H    -0.006117    3.568422   14.533006
H     2.239984    1.293255    8.258248
Be    0.000000    2.586511   19.855336
Be    0.000000    0.000000   18.782785
Be    0.000000    0.000000    4.574280
Be    2.239984    1.293255    3.501730
Be    2.239984    1.293255   12.214808
Be    0.000000    2.586511   11.142258
B     2.239984    1.293255   19.335515
B     0.000000    2.586511    4.054459
B     0.000000    0.000000   11.694987
N     0.000000    0.000000   22.511447
N     2.239984    1.293255    7.230392
N     0.000000    2.586511   14.870919
O     3.624245    1.285079   19.358370
O     1.554935    2.496149   19.358370
O     1.540773    0.098539   19.358370
O     1.384261    2.578334    4.077314
O    -0.685049    3.789404    4.077314
O    -0.699211    1.391794    4.077314
O    -0.855723    3.871590   11.717842
O    -0.685049    1.202893   11.717842
O     1.540773    2.685049   11.717842
F     0.000000    2.586511   21.457753
F     0.000000    0.000000    6.176698
F     2.239984    1.293255   13.817225
Cl    0.000000    0.000000   16.763068
Cl    2.239984    1.293255    1.482012
Cl    0.000000    2.586511    9.122540
K_POINTS automatic
3 3 3 0 0 0
