&CONTROL
    pseudo_dir = "C:\Users\User\.burai\.pseudopot"
/

&SYSTEM
    a     =  4.42700e+00
    c     =  1.87440e+01
    ibrav = 4
    nat   = 27
    ntyp  = 5
/
&electrons
/
ATOMIC_SPECIES
Be   1.00000  unknown
O   15.99940  O.pbe-rrkjus.UPF
K    1.00000  unknown
F    18.99840  F.pbe-n-rrkjus_psl.1.0.0.UPF
B    1.00000  unknown

ATOMIC_POSITIONS {crystal}
Be    0.000000   0.000000   0.802600
Be    0.000000   0.000000   0.197400
Be    0.666667   0.333333   0.135933
Be    0.666667   0.333333   0.530733
Be    0.333333   0.666667   0.469267
Be    0.333333   0.666667   0.864067
O     0.690600   0.000000   0.500000
O     0.000000   0.690600   0.500000
O     0.309400   0.309400   0.500000
O     0.357267   0.333333   0.833333
O     0.666667   0.023933   0.833333
O     0.976067   0.642733   0.833333
O     0.023933   0.666667   0.166667
O     0.333333   0.357267   0.166667
O     0.642733   0.976067   0.166667
K     0.000000   0.000000   0.000000
K     0.666667   0.333333   0.333333
K     0.333333   0.666667   0.666667
F     0.000000   0.000000   0.721520
F     0.000000   0.000000   0.278480
F     0.666667   0.333333   0.054853
F     0.666667   0.333333   0.611813
F     0.333333   0.666667   0.388187
F     0.333333   0.666667   0.945147
B     0.000000   0.000000   0.500000
B     0.666667   0.333333   0.833333
B     0.333333   0.666667   0.166667

