&control
 calculation= 'scf'
 prefix= 'BPOSCAR_2nd'
 pseudo_dir= './'
/
&system
 ibrav= 0
 nat=    27
 ntyp=    7
 ecutwfc= 44.0
/
&electrons
/
CELL_PARAMETERS angstrom
    4.42700000    0.00000000    0.00000000
   -2.21350000    3.83389446    0.00000000
    0.00000000    0.00000000   18.74400000
ATOMIC_SPECIES
Be   9.0122  Pseudopotential_file
B   10.8110  Pseudopotential_file
K   14.0067  Pseudopotential_file
O   15.9994  Pseudopotential_file
F   18.9984  Pseudopotential_file

ATOMIC_POSITIONS crystal
Be    0.000000   0.000000   0.802600
Be    0.000000   0.000000   0.197400
Be    0.666667   0.333333   0.135933
Be    0.666667   0.333333   0.530733
Be    0.333333   0.666667   0.469267
Be    0.333333   0.666667   0.864067
O     0.690600   0.000000   0.500000
O     0.000000   0.690600   0.500000
O     0.309400   0.309400   0.500000
O     0.357267   0.333333   0.833333
O     0.666667   0.023933   0.833333
O     0.976067   0.642733   0.833333
O     0.023933   0.666667   0.166667
O     0.333333   0.357267   0.166667
O     0.642733   0.976067   0.166667
K     0.000000   0.000000   0.000000
K     0.666667   0.333333   0.333333
K     0.333333   0.666667   0.666667
F     0.000000   0.000000   0.721520
F     0.000000   0.000000   0.278480
F     0.666667   0.333333   0.054853
F     0.666667   0.333333   0.611813
F     0.333333   0.666667   0.388187
F     0.333333   0.666667   0.945147
B     0.000000   0.000000   0.500000
B     0.666667   0.333333   0.833333
B     0.333333   0.666667   0.166667

K_POINTS automatic
3 3 3 0 0 0
