&CONTROL
    pseudo_dir = "C:\Users\User\.burai\.pseudopot"
/

&SYSTEM
    a     =  4.44184e+00
    c     =  1.99093e+01
    ibrav = 4
    nat   = 39
    ntyp  = 6
/

ATOMIC_SPECIES
Be      9.01218  Be.pbe-rrkjus.UPF
B      10.81100  B.pbe-n-van_ak.UPF
O      15.99940  O.pbe-rrkjus.UPF
F      18.99840  F.pbe-n-rrkjus_psl.1.0.0.UPF
H       1.00794  H.pbe-rrkjus.UPF
N      14.00674  N.pbe-rrkjus.UPF

ATOMIC_POSITIONS {angstrom}
Be    2.220900    3.846712    3.883649
Be    2.220900    3.846712   16.025352
Be    2.220900    1.282237   10.519982
Be    2.220900    1.282237    2.752685
Be    0.000000    2.564474   17.156316
Be    0.000000    2.564474    9.389018
 B    2.220900    3.846712    9.954500
 B    2.220900    1.282237   16.590834
 B    0.000000    2.564474    3.318167
 O   -0.846163    3.846712    9.954500
 O    3.754432    1.190557    9.954500
 O    1.533531    2.656154    9.954500
 O    3.595637    1.282237   16.590834
 O    1.533531    2.472795   16.590834
 O    1.374737    2.564474    3.318167
 O   -0.687369    3.755032    3.318167
 F    2.220900    3.846712    5.409673
 Cl    2.220900    3.846712   14.499327
 F    2.220900    1.282237   12.046007
 Cl    2.220900    1.282237    1.226660
 F    0.000000    2.564474   18.682340
 Cl    0.000000    2.564474    7.862993
 H    1.572175    1.642161    7.055750
 H    0.636066    2.182624   12.853250
 H   -0.648725    2.204550   12.853250
 H    0.012659    3.306249   12.853250
 H   -0.648725    2.924399   13.692083
 H    2.233559    3.104937    0.419416
 H    2.856966    0.900387    6.216917
 H    1.572175    0.922313    6.216917
 H    2.233559    2.024012    6.216917
 N    2.220900    1.282237    6.636334
 N    0.000000    2.564475   13.272667
 N    2.220900    3.846712    0.000000
 O    3.754432    1.373917    3.318167
 O   -0.687369    3.938392   16.590834
 H    2.856966    3.464861   -0.419416
 H    2.233559    4.588486   -0.419416
 H    2.856966    4.228562    0.419416

