 &control
    calculation = 'scf'
    tprnfor = .true.
    tstress = .true.
    pseudo_dir = '../pseudo/'
    outdir = '../work/'
    disk_io = 'none'
 /
 &system
    ibrav = 0
    nat = 64
    ntyp = 1
    ecutwfc = 70.0
 /
 &electrons
    diagonalization = 'david'
    conv_thr = 1.0d-9
 /
K_POINTS automatic
 2 2 2  1 1 1
 
 ATOMIC_SPECIES
 Si   28.08550   Si.pbe-n-kjpaw_psl.0.1.UPF
