#Generated by Multiwfn
&GLOBAL
  PROJECT Graphene
  PRINT_LEVEL LOW
  RUN_TYPE ENERGY
&END GLOBAL

&FORCE_EVAL
  METHOD Quickstep
  &SUBSYS
    &CELL
      A     2.46515800     0.00000000     0.00000000
      B    -1.23257017     2.13489455     0.00000000
      C     0.00000000     0.00000000    15.00000000
      PERIODIC XYZ #Direction(s) of applied PBC (geometry aspect)
    &END CELL
    &COORD
      C           1.23196688    0.71056336    7.50000000
      C          -0.00061164    1.42219630    7.50000000
    &END COORD
    &KIND C
      ELEMENT C
      BASIS_SET DZVP-MOLOPT-SR-GTH-q4
      POTENTIAL GTH-PBE
    &END KIND
  &END SUBSYS

  &DFT
    BASIS_SET_FILE_NAME  BASIS_MOLOPT
    POTENTIAL_FILE_NAME  POTENTIAL
#   WFN_RESTART_FILE_NAME Graphene-RESTART.kp
    CHARGE    0 #Net charge
    MULTIPLICITY    1 #Spin multiplicity
    &KPOINTS
      SCHEME MONKHORST-PACK 11 11  1
    &END KPOINTS
    &PRINT
     &BAND_STRUCTURE
      ADDED_MOS 20
      FILE_NAME Graphene.bs
       &KPOINT_SET
        UNITS B_VECTOR
        SPECIAL_POINT -0.50000   0.50000    0.00000   #M
        SPECIAL_POINT  0.00000   0.00000    0.00000   #G
        SPECIAL_POINT -0.33333   0.66667    0.00000   #K
        SPECIAL_POINT -0.50000   0.50000    0.00000   #M
        NPOINTS 50
       &END
     &END BAND_STRUCTURE
    &END PRINT      
    &QS
      EPS_DEFAULT 1.0E-11 #Set all EPS_xxx to values such that the energy will be correct up to this value
    &END QS
    &POISSON
      PERIODIC XYZ #Direction(s) of PBC for calculating electrostatics
      PSOLVER PERIODIC #The way to solve Poisson equation
    &END POISSON
    &XC
      &XC_FUNCTIONAL PBE
      &END XC_FUNCTIONAL
    &END XC
    &MGRID
      CUTOFF  350
      REL_CUTOFF  50
    &END MGRID
    &SCF
      MAX_SCF 128
      EPS_SCF 5.0E-06 #Convergence threshold of density matrix of inner SCF
#     SCF_GUESS RESTART #Use wavefunction from WFN_RESTART_FILE_NAME file as initial guess
#     IGNORE_CONVERGENCE_FAILURE #Continue calculation even if SCF not converged, works for version >= 2024.1
      &DIAGONALIZATION
        ALGORITHM STANDARD #Algorithm for diagonalization
      &END DIAGONALIZATION
      &MIXING #How to mix old and new density matrices
        METHOD BROYDEN_MIXING #PULAY_MIXING is also a good alternative
        ALPHA 0.4 #Default. Mixing 40% of new density matrix with the old one
        NBROYDEN 8 #Default is 4. Number of previous steps stored for the actual mixing scheme
      &END MIXING

      &SMEAR ON
        METHOD FERMI_DIRAC  # 或者其他的smearing方法，如GAUSSIAN
        ELECTRONIC_TEMPERATURE [K] 0  # 以Kelvin为单位，设置电子温度
      &END SMEAR
         ADDED_MOS 20
       
    &END SCF
  &END DFT
&END FORCE_EVAL
