#Generated by Multiwfn (http://sobereva.com/multiwfn)
&GLOBAL
  PROJECT nbbfc-pbe0
  PRINT_LEVEL LOW
  RUN_TYPE ENERGY
  PREFERRED_DIAG_LIBRARY SL
&END GLOBAL

&FORCE_EVAL
  METHOD Quickstep
  &SUBSYS
    &CELL
      ABC [angstrom]  4.479968 4.479968 22.921584
      PERIODIC XYZ #Direction(s) of applied PBC (geometry aspect)
      ALPHA_BETA_GAMMA [deg] 90 90 120
      MULTIPLE_UNIT_CELL 3 3 1
    &END CELL
    &TOPOLOGY
      MULTIPLE_UNIT_CELL 3 3 1
    &END TOPOLOGY
    &COORD
      Be          2.24175341    3.87535628    4.63415520
      Be          2.24812946    3.83848744   18.71932325
      Be          2.18574424    1.29558934   12.15277009
      Be          2.24305043    1.28729076    3.55928763
      Be          0.01180754    2.54318862   19.79326180
      Be         -0.05191282    2.58897517   11.08418281
      B           4.42672732    0.00314420   11.63473084
      B           2.24963338    1.25034258   19.27258312
      B           0.00243793    2.58180373    4.11448415
      O          -0.90901640    3.87458634   11.65471685
      O           3.74096746    1.20587317   11.65738240
      O           1.48802939    2.68845202   11.65950219
      O           3.63395409    1.24187255   19.29899085
      O           1.56547079    2.45376350   19.29251046
      O           1.38721002    2.57246165    4.13619937
      O          -0.68215810    3.78510671    4.13920669
      F           2.23912022    3.87903461    6.23654973
      Cl          2.22307927    3.85738120   16.69940885
      F           2.17998787    1.29296674   13.75419206
      Cl          2.25262537    1.27076458    1.53089432
      F           0.02893273    2.53476786   21.39699908
      Cl         -0.02957995    2.58410040    9.07339579
      H           2.22454457    1.29495430    8.27978913
      H           0.80502250    2.09652655   14.46335516
      H          -0.89628863    2.08812111   14.47069579
      H          -0.05544030    3.56459272   14.46589258
      H          -0.04464405    2.58529052   15.83252761
      H           1.41922470    3.33809535   22.14143024
      H           3.08572703    0.80753766    6.92412230
      H           1.38333220    0.79563329    6.91486450
      H           2.22625115    2.27574090    6.91788190
      N           2.22964213    1.29322389    7.25309768
      N          -0.04701050    2.58300603   14.80470132
      N           2.26441069    3.83449586   22.48586211
      O          -0.69762837    1.38773918    4.13813717
      O           1.54916695    0.05508558   19.29567020
      H          -1.36261204    3.34616212   22.15024588
      H           0.02193849    0.93458180   22.14010675
      H           2.25961314    3.83670834    0.59329449
    &END COORD
    &KIND N
      BASIS_SET TZVP-MOLOPT-PBE0-GTH-q5
      BASIS_SET AUX_FIT admm-tzp-q5
      POTENTIAL GTH-PBE0-q5
    &END KIND
    &KIND H
      BASIS_SET TZVP-MOLOPT-PBE0-GTH-q1
      BASIS_SET AUX_FIT admm-tzp-q1
      POTENTIAL GTH-PBE0-q1
    &END KIND
    &KIND B
      BASIS_SET TZVP-MOLOPT-PBE0-GTH-q3
      BASIS_SET AUX_FIT admm-tzp-q3
      POTENTIAL GTH-PBE0-q3
    &END KIND
    &KIND O
      BASIS_SET TZVP-MOLOPT-PBE0-GTH-q6
      BASIS_SET AUX_FIT admm-tzp-q6
      POTENTIAL GTH-PBE0-q6
    &END KIND
    &KIND Be
      BASIS_SET TZVP-MOLOPT-PBE0-GTH-q4
      BASIS_SET AUX_FIT admm-tzp-q4
      POTENTIAL GTH-PBE0-q4
    &END KIND
    &KIND F
      BASIS_SET TZVP-MOLOPT-PBE0-GTH-q7
      BASIS_SET AUX_FIT admm-tzp-q7
      POTENTIAL GTH-PBE0-q7
    &END KIND
    &KIND Cl
      BASIS_SET TZVP-MOLOPT-PBE0-GTH-q7
      BASIS_SET AUX_FIT admm-tzp-q7
      POTENTIAL GTH-PBE0-q7
    &END KIND
  &END SUBSYS

  &DFT
    BASIS_SET_FILE_NAME BASIS_MOLOPT_UZH
    POTENTIAL_FILE_NAME POTENTIAL_UZH
    BASIS_SET_FILE_NAME BASIS_ADMM_UZH
    WFN_RESTART_FILE_NAME nbbfc-pbe-RESTART.wfn
    CHARGE    0 #Net charge
    MULTIPLICITY    1 #Spin multiplicity
    &QS
      EPS_DEFAULT 1.0E-12 #Set all EPS_xxx to values such that the energy will be correct up to this value
      EPS_PGF_ORB 1E-12 #If warning "Kohn Sham matrix not 100% occupied" occurs and meantime calculation is unstable, decrease it
    &END QS
    &POISSON
      PERIODIC XYZ #Direction(s) of PBC for calculating electrostatics
      PSOLVER PERIODIC #The way to solve Poisson equation
    &END POISSON
    &AUXILIARY_DENSITY_MATRIX_METHOD      
      METHOD BASIS_PROJECTION             
      EXCH_SCALING_MODEL NONE            
      EXCH_CORRECTION_FUNC PBEX         
      ADMM_PURIFICATION_METHOD NONE        
    &END AUXILIARY_DENSITY_MATRIX_METHOD
    &XC
      &VDW_POTENTIAL
        DISPERSION_FUNCTIONAL PAIR_POTENTIAL
        &PAIR_POTENTIAL
          CALCULATE_C9_TERM .TRUE.
          PARAMETER_FILE_NAME dftd3.dat
          REFERENCE_C9_TERM .TRUE.
          REFERENCE_FUNCTIONAL PBE0
          R_CUTOFF 16
          TYPE DFTD3(BJ)
          VERBOSE_OUTPUT T
        &END PAIR_POTENTIAL
      &END VDW_POTENTIAL
      &XC_FUNCTIONAL
        &PBE
          SCALE_X 0.75
          SCALE_C 1.0
        &END PBE
      &END XC_FUNCTIONAL
      &HF
        FRACTION 0.25 #HF composition
        &SCREENING
          EPS_SCHWARZ 1E-6 #The larger the value, the lower the cost and lower the accuracy
          SCREEN_ON_INITIAL_P T #Screening ERI based on initial density matrix, need to provide wavefunction restart file
        &END SCREENING
        &INTERACTION_POTENTIAL
          POTENTIAL_TYPE TRUNCATED
          CUTOFF_RADIUS  6.0 #Cutoff radius (Angstrom) for truncated 1/r Coulomb operator
        &END INTERACTION_POTENTIAL
        &MEMORY
          MAX_MEMORY 3000 #Memory(MB) per MPI process for calculating HF exchange
        &END MEMORY
      &END HF
    &END XC
    &MGRID  
      CUTOFF 600  
      REL_CUTOFF 60  
      NGRIDS 5  
    &END MGRID  
    &SCF
      ADDED_MOS    300 #Number of virtual MOs to solve
      MAX_SCF 200
      EPS_SCF 1.0E-06 #Convergence threshold of density matrix of inner SCF
      SCF_GUESS RESTART #Use wavefunction from WFN_RESTART_FILE_NAME file as initial guess
#     IGNORE_CONVERGENCE_FAILURE #Continue calculation even if SCF not converged, works for version >= 2024.1
      &DIAGONALIZATION
        ALGORITHM STANDARD #Algorithm for diagonalization
      &END DIAGONALIZATION
      &MIXING #How to mix old and new density matrices
        METHOD BROYDEN_MIXING #PULAY_MIXING is also a good alternative
        ALPHA 0.4 #Default. Mixing 40% of new density matrix with the old one
        NBROYDEN 8 #Default is 4. Number of previous steps stored for the actual mixing scheme
      &END MIXING
      &PRINT
        &RESTART #Note: Use "&RESTART OFF" can prevent generating .wfn file
          BACKUP_COPIES 0 #Maximum number of backup copies of wfn file. 0 means never
        &END RESTART
      &END PRINT
    &END SCF
    &PRINT
      &MO_MOLDEN #Exporting .molden file containing wavefunction information
        NDIGITS 9 #Output orbital coefficients if absolute value is larger than 1E-9
      &END MO_MOLDEN
    &END PRINT
  &END DFT
  &PROPERTIES
     &TDDFPT #TDDFT calculation with Tamm-Dancoff approximation
      MAX_ITER 100
      NSTATES   500 #Number of excited states to solve
      RKS_TRIPLETS F #If calculating triplet rather than singlet excited states
      CONVERGENCE [eV] 1E-4 #Convergence criterion of all excitation energies
      MIN_AMPLITUDE 0.01 #The smallest excitation amplitude to print
 #    RESTART T #If restarting TDDFT calculation. If true, WFN_RESTART_FILE_NAME should be set to previous .tdwfn file
 #    WFN_RESTART_FILE_NAME 4amp15pbedft-RESTART.tdwfn
      &PRINT
        #&DETAILED_ENERGY #Print excitation energies at every Davidson iteration
        #&END DETAILED_ENERGY
      &END PRINT
    &END TDDFPT
  &END PROPERTIES
&END FORCE_EVAL
