 &control
    calculation = 'scf'
    pseudo_dir = '/home/apparelixetsy/Si-phonon-output/pp/'
    tprnfor = .true.
    tstress = .true.
 /
 &system
    ibrav = 0
    nat = 8
    ntyp = 1
    ecutwfc = 70.0
 /
 &electrons
    diagonalization = 'david'
    conv_thr = 1.0d-9
 /
ATOMIC_SPECIES
 Si  28.086  Si.pbe-n-kjpaw_psl.1.0.0.UPF

K_POINTS automatic
 8 8 8  1 1 1
 
